CPXPARAM_Read_DataCheck                          1
Found incumbent of value 0.000000 after 0.00 sec. (0.13 ticks)
Tried aggregator 1 time.
MIP Presolve modified 1 coefficients.
Reduced MIP has 1017 rows, 5005 columns, and 25017 nonzeros.
Reduced MIP has 5005 binaries, 0 generals, 0 SOSs, and 0 indicators.
Presolve time = 0.00 sec. (10.51 ticks)
Probing time = 0.00 sec. (5.74 ticks)
Tried aggregator 1 time.
Reduced MIP has 1017 rows, 5005 columns, and 25017 nonzeros.
Reduced MIP has 5005 binaries, 0 generals, 0 SOSs, and 0 indicators.
Presolve time = 0.02 sec. (12.42 ticks)
Probing time = 0.00 sec. (5.35 ticks)
Clique table members: 16064.
MIP emphasis: balance optimality and feasibility.
MIP search method: dynamic search.
Parallel mode: deterministic, using up to 4 threads.
Root relaxation solution time = 0.05 sec. (47.64 ticks)

        Nodes                                         Cuts/
   Node  Left     Objective  IInf  Best Integer    Best Bound    ItCnt     Gap

*     0+    0                            0.0000    31000.0000              --- 
*     0+    0                         3841.0000    31000.0000           707.08%
*     0+    0                         4058.0000    31000.0000           663.92%
      0     0    10408.3430     5     4058.0000    10408.3430     1389  156.49%
*     0+    0                         6043.0000    10408.3430            72.24%
      0     0     9077.4987   199     6043.0000     Cuts: 354     1981   29.15%
*     0+    0                         6239.0000     7804.2500            25.09%
      0     0        cutoff           6239.0000     6239.0000     2394    0.00%
Elapsed time = 0.86 sec. (567.99 ticks, tree = 0.01 MB, solutions = 5)

Clique cuts applied:  534
Cover cuts applied:  3
Implied bound cuts applied:  3
Mixed integer rounding cuts applied:  4
Zero-half cuts applied:  4

Root node processing (before b&c):
  Real time             =    0.86 sec. (568.43 ticks)
Parallel b&c, 4 threads:
  Real time             =    0.00 sec. (0.00 ticks)
  Sync time (average)   =    0.00 sec.
  Wait time (average)   =    0.00 sec.
                          ------------
Total (root+branch&cut) =    0.86 sec. (568.43 ticks)
